networks/zoo_64_348/zoo_64_348-lower.txt
Number of groups: 46
Flow 9: {2 1 0} 
Flow 20: {2 8 0} {8 23 0} 
Flow 23: {3 1 0} 
Flow 39: {4 8 0} {8 24 0} {24 22 0} 
Flow 45: {7 1 0} {1 8 0} {8 21 0} 
Flow 55: {4 5 0} {5 39 0} 
Flow 65: {8 9 0} {9 20 0} {20 19 0} {19 53 0} 
Flow 84: {10 17 0} {17 18 0} {18 52 0} 
Flow 94: {11 20 0} {20 21 0} 
Flow 107: {13 12 0} {12 20 0} {20 16 0} 
Flow 109: {24 21 0} 
Flow 117: {14 16 0} {16 10 0} {10 44 0} 
Flow 128: {14 18 0} {18 21 0} {21 23 0} {23 57 0} 
Flow 130: {12 24 0} {24 26 0} 
Flow 141: {15 20 0} 
Flow 155: {16 14 0} {14 12 0} {12 13 0} {13 47 0} 
Flow 163: {16 15 0} {15 24 0} {24 58 0} 
Flow 170: {17 14 0} {14 15 0} {15 11 0} 
Flow 181: {17 10 0} {10 16 0} {16 20 0} {20 26 0} {26 60 0} 
Flow 205: {19 20 0} {20 12 0} {12 46 0} 
Flow 206: {19 11 0} {11 15 0} {15 14 0} 
Flow 217: {9 8 0} {8 6 0} {6 40 0} 
Flow 231: {20 9 0} {9 24 0} 
Flow 233: {9 23 0} {23 25 0} {25 28 0} {28 62 0} 
Flow 238: {21 8 0} {8 42 0} 
Flow 245: {20 15 0} {15 49 0} 
Flow 247: {18 17 0} {17 51 0} 
Flow 251: {20 22 0} {22 56 0} 
Flow 253: {21 24 0} 
Flow 254: {21 9 0} {9 26 0} 
Flow 256: {20 30 0} {30 64 0} 
Flow 258: {22 24 0} {24 8 0} {8 4 0} {4 38 0} 
Flow 261: {22 20 0} {20 11 0} {11 45 0} 
Flow 279: {23 21 0} {21 18 0} {18 14 0} 
Flow 283: {23 9 0} 
Flow 290: {24 9 0} {9 43 0} 
Flow 292: {24 12 0} {12 14 0} {14 48 0} 
Flow 294: {24 15 0} {15 16 0} {16 50 0} 
Flow 317: {23 26 0} 
Flow 320: {26 20 0} 
Flow 321: {26 9 0} {9 21 0} {21 55 0} 
Flow 322: {26 24 0} 
Flow 323: {27 25 0} {25 23 0} {23 8 0} {8 1 0} {1 35 0} 
Flow 338: {28 25 0} 
Flow 347: {29 21 0} {21 20 0} {20 54 0} 
Flow 348: {30 20 0} 
Time taken running everything: 2 seconds
