networks/zoo_64_348/zoo_64_348-lower.sol
<?xml version = "1.0" encoding="UTF-8" standalone="yes"?>
<CPLEXSolution version="1.2">
 <header
   problemName="networks/zoo_64_348/zoo_64_348-lower.lp"
   solutionName="incumbent"
   solutionIndex="-1"
   objectiveValue="24"
   solutionTypeValue="3"
   solutionTypeString="primal"
   solutionStatusValue="101"
   solutionStatusString="integer optimal solution"
   solutionMethodString="mip"
   primalFeasible="1"
   dualFeasible="1"
   MIPNodes="0"
   MIPIterations="0"
   writeLevel="3"/>
 <quality
   epInt="1.0000000000000001e-05"
   epRHS="9.9999999999999995e-07"
   maxIntInfeas="0"
   maxPrimalInfeas="0"
   maxX="1"
   maxSlack="1"/>
 <variables>
  <variable name="Y(1,9)" index="8" value="1"/>
  <variable name="Y(2,12)" index="65" value="1"/>
  <variable name="Y(3,14)" index="121" value="1"/>
  <variable name="Y(4,16)" index="177" value="1"/>
  <variable name="Y(5,18)" index="233" value="1"/>
  <variable name="Y(6,20)" index="289" value="1"/>
  <variable name="Y(7,21)" index="344" value="1"/>
  <variable name="Y(8,24)" index="401" value="1"/>
  <variable name="Y(9,1)" index="432" value="1"/>
  <variable name="Y(11,11)" index="550" value="1"/>
  <variable name="Y(14,15)" index="716" value="1"/>
  <variable name="Y(19,22)" index="993" value="1"/>
  <variable name="Y(20,23)" index="1048" value="1"/>
  <variable name="Y(54,4)" index="2865" value="1"/>
  <variable name="Y(55,5)" index="2920" value="1"/>
  <variable name="Y(56,6)" index="2975" value="1"/>
  <variable name="Y(60,13)" index="3198" value="1"/>
  <variable name="Y(65,19)" index="3474" value="1"/>
  <variable name="Y(71,26)" index="3805" value="1"/>
  <variable name="Y(72,28)" index="3861" value="1"/>
  <variable name="Y(77,8)" index="4111" value="1"/>
  <variable name="Y(117,10)" index="6273" value="1"/>
  <variable name="Y(247,17)" index="13300" value="1"/>
  <variable name="Y(256,30)" index="13799" value="1"/>
  <variable name="X(1,8,1)" index="18792" value="1"/>
  <variable name="X(1,35,9)" index="19148" value="1"/>
  <variable name="X(2,1,9)" index="19496" value="1"/>
  <variable name="X(2,8,10)" index="19845" value="1"/>
  <variable name="X(3,1,22)" index="20205" value="1"/>
  <variable name="X(4,5,55)" index="20586" value="1"/>
  <variable name="X(4,8,30)" index="20909" value="1"/>
  <variable name="X(4,38,54)" index="21281" value="1"/>
  <variable name="X(5,39,55)" index="21630" value="1"/>
  <variable name="X(6,40,56)" index="21979" value="1"/>
  <variable name="X(7,1,42)" index="22313" value="1"/>
  <variable name="X(8,1,30)" index="22649" value="1"/>
  <variable name="X(8,4,54)" index="23021" value="1"/>
  <variable name="X(8,6,56)" index="23371" value="1"/>
  <variable name="X(8,9,1)" index="23664" value="1"/>
  <variable name="X(8,21,3)" index="24014" value="1"/>
  <variable name="X(8,23,20)" index="24379" value="1"/>
  <variable name="X(8,24,2)" index="24709" value="1"/>
  <variable name="X(8,42,77)" index="25132" value="1"/>
  <variable name="X(9,8,203)" index="25606" value="1"/>
  <variable name="X(9,20,4)" index="25755" value="1"/>
  <variable name="X(9,21,74)" index="26173" value="1"/>
  <variable name="X(9,23,88)" index="26535" value="1"/>
  <variable name="X(9,24,231)" index="27026" value="1"/>
  <variable name="X(9,26,71)" index="27214" value="1"/>
  <variable name="X(9,43,1)" index="27492" value="1"/>
  <variable name="X(10,16,75)" index="27914" value="1"/>
  <variable name="X(10,17,84)" index="28271" value="1"/>
  <variable name="X(10,44,117)" index="28652" value="1"/>
  <variable name="X(11,15,95)" index="28978" value="1"/>
  <variable name="X(11,20,92)" index="29323" value="1"/>
  <variable name="X(11,45,11)" index="29590" value="1"/>
  <variable name="X(12,13,60)" index="29987" value="1"/>
  <variable name="X(12,14,98)" index="30373" value="1"/>
  <variable name="X(12,20,99)" index="30722" value="1"/>
  <variable name="X(12,24,96)" index="31067" value="1"/>
  <variable name="X(12,46,2)" index="31321" value="1"/>
  <variable name="X(13,12,103)" index="31770" value="1"/>
  <variable name="X(13,47,60)" index="32075" value="1"/>
  <variable name="X(14,12,80)" index="32443" value="1"/>
  <variable name="X(14,15,118)" index="32829" value="1"/>
  <variable name="X(14,16,117)" index="33176" value="1"/>
  <variable name="X(14,18,123)" index="33530" value="1"/>
  <variable name="X(14,48,3)" index="33758" value="1"/>
  <variable name="X(15,11,79)" index="34182" value="1"/>
  <variable name="X(15,14,137)" index="34588" value="1"/>
  <variable name="X(15,16,139)" index="34938" value="1"/>
  <variable name="X(15,20,141)" index="35288" value="1"/>
  <variable name="X(15,24,75)" index="35570" value="1"/>
  <variable name="X(15,49,14)" index="35857" value="1"/>
  <variable name="X(16,10,117)" index="36308" value="1"/>
  <variable name="X(16,14,80)" index="36619" value="1"/>
  <variable name="X(16,15,75)" index="36962" value="1"/>
  <variable name="X(16,20,78)" index="37313" value="1"/>
  <variable name="X(16,50,4)" index="37587" value="1"/>
  <variable name="X(17,10,174)" index="38105" value="1"/>
  <variable name="X(17,14,170)" index="38449" value="1"/>
  <variable name="X(17,18,84)" index="38711" value="1"/>
  <variable name="X(17,51,247)" index="39222" value="1"/>
  <variable name="X(18,14,3)" index="39326" value="1"/>
  <variable name="X(18,17,240)" index="39911" value="1"/>
  <variable name="X(18,21,126)" index="40145" value="1"/>
  <variable name="X(18,52,5)" index="40372" value="1"/>
  <variable name="X(19,11,206)" index="40921" value="1"/>
  <variable name="X(19,20,203)" index="41266" value="1"/>
  <variable name="X(19,53,65)" index="41476" value="1"/>
  <variable name="X(20,9,78)" index="41837" value="1"/>
  <variable name="X(20,11,11)" index="42118" value="1"/>
  <variable name="X(20,12,205)" index="42660" value="1"/>
  <variable name="X(20,15,224)" index="43027" value="1"/>
  <variable name="X(20,16,4)" index="43155" value="1"/>
  <variable name="X(20,19,65)" index="43564" value="1"/>
  <variable name="X(20,21,86)" index="43933" value="1"/>
  <variable name="X(20,22,87)" index="44282" value="1"/>
  <variable name="X(20,26,90)" index="44633" value="1"/>
  <variable name="X(20,30,256)" index="45147" value="1"/>
  <variable name="X(20,54,6)" index="45245" value="1"/>
  <variable name="X(21,8,166)" index="45753" value="1"/>
  <variable name="X(21,9,169)" index="46104" value="1"/>
  <variable name="X(21,18,3)" index="46286" value="1"/>
  <variable name="X(21,20,195)" index="46826" value="1"/>
  <variable name="X(21,23,128)" index="47107" value="1"/>
  <variable name="X(21,24,200)" index="47527" value="1"/>
  <variable name="X(21,55,7)" index="47682" value="1"/>
  <variable name="X(22,20,260)" index="48283" value="1"/>
  <variable name="X(22,24,257)" index="48628" value="1"/>
  <variable name="X(22,56,19)" index="48738" value="1"/>
  <variable name="X(23,8,273)" index="49340" value="1"/>
  <variable name="X(23,9,276)" index="49691" value="1"/>
  <variable name="X(23,21,279)" index="50042" value="1"/>
  <variable name="X(23,25,72)" index="50183" value="1"/>
  <variable name="X(23,26,287)" index="50746" value="1"/>
  <variable name="X(23,57,20)" index="50827" value="1"/>
  <variable name="X(24,8,75)" index="51230" value="1"/>
  <variable name="X(24,9,97)" index="51600" value="1"/>
  <variable name="X(24,12,2)" index="51853" value="1"/>
  <variable name="X(24,15,14)" index="52213" value="1"/>
  <variable name="X(24,21,101)" index="52648" value="1"/>
  <variable name="X(24,22,19)" index="52914" value="1"/>
  <variable name="X(24,26,130)" index="53373" value="1"/>
  <variable name="X(24,58,8)" index="53599" value="1"/>
  <variable name="X(25,23,299)" index="54238" value="1"/>
  <variable name="X(25,28,72)" index="54359" value="1"/>
  <variable name="X(26,9,319)" index="54954" value="1"/>
  <variable name="X(26,20,320)" index="55303" value="1"/>
  <variable name="X(26,24,322)" index="55653" value="1"/>
  <variable name="X(26,60,71)" index="55750" value="1"/>
  <variable name="X(27,25,323)" index="56350" value="1"/>
  <variable name="X(28,25,335)" index="56710" value="1"/>
  <variable name="X(28,62,72)" index="56795" value="1"/>
  <variable name="X(29,21,347)" index="57418" value="1"/>
  <variable name="X(30,20,348)" index="57767" value="1"/>
  <variable name="X(30,64,256)" index="58023" value="1"/>
 </variables>
</CPLEXSolution>
